100
128
11
40
37
32
7
31
22
45
30
34
40
36
23
51
8
46
52
27
25
22
50
46
4
33
21
54
46
27
55
28
17
53
43
32
27
24
6
16
1
54
18
47
20
19
42
24
2
47
32
23
1
30
19
42
21
38
22
22
21
24
47
4
28
63
34
49
30
49
4
39
35
58
21
23
25
16
20
42
64
51
55
21
18
23
17
20
50
17
51
60
35
44
59
37
64
64
48
64
64
32